c CNF file corresponding to a (partial) station packing problem.
p cnf 1450 229
1 2 3 4 5 6 7 8 9 10 11 12 13 14 0
-1 -2 0
-1 -3 0
-1 -4 0
-1 -5 0
-1 -6 0
-1 -7 0
-1 -8 0
-1 -9 0
-1 -10 0
-1 -11 0
-1 -12 0
-1 -13 0
-1 -14 0
-2 -3 0
-2 -4 0
-2 -5 0
-2 -6 0
-2 -7 0
-2 -8 0
-2 -9 0
-2 -10 0
-2 -11 0
-2 -12 0
-2 -13 0
-2 -14 0
-3 -4 0
-3 -5 0
-3 -6 0
-3 -7 0
-3 -8 0
-3 -9 0
-3 -10 0
-3 -11 0
-3 -12 0
-3 -13 0
-3 -14 0
-4 -5 0
-4 -6 0
-4 -7 0
-4 -8 0
-4 -9 0
-4 -10 0
-4 -11 0
-4 -12 0
-4 -13 0
-4 -14 0
-5 -6 0
-5 -7 0
-5 -8 0
-5 -9 0
-5 -10 0
-5 -11 0
-5 -12 0
-5 -13 0
-5 -14 0
-6 -7 0
-6 -8 0
-6 -9 0
-6 -10 0
-6 -11 0
-6 -12 0
-6 -13 0
-6 -14 0
-7 -8 0
-7 -9 0
-7 -10 0
-7 -11 0
-7 -12 0
-7 -13 0
-7 -14 0
-8 -9 0
-8 -10 0
-8 -11 0
-8 -12 0
-8 -13 0
-8 -14 0
-9 -10 0
-9 -11 0
-9 -12 0
-9 -13 0
-9 -14 0
-10 -11 0
-10 -12 0
-10 -13 0
-10 -14 0
-11 -12 0
-11 -13 0
-11 -14 0
-12 -13 0
-12 -14 0
-13 -14 0
1434 1435 1436 1437 1438 1439 1440 1441 1442 1443 1444 1445 1446 1447 1448 1449 1450 0
-1434 -1435 0
-1434 -1436 0
-1434 -1437 0
-1434 -1438 0
-1434 -1439 0
-1434 -1440 0
-1434 -1441 0
-1434 -1442 0
-1434 -1443 0
-1434 -1444 0
-1434 -1445 0
-1434 -1446 0
-1434 -1447 0
-1434 -1448 0
-1434 -1449 0
-1434 -1450 0
-1435 -1436 0
-1435 -1437 0
-1435 -1438 0
-1435 -1439 0
-1435 -1440 0
-1435 -1441 0
-1435 -1442 0
-1435 -1443 0
-1435 -1444 0
-1435 -1445 0
-1435 -1446 0
-1435 -1447 0
-1435 -1448 0
-1435 -1449 0
-1435 -1450 0
-1436 -1437 0
-1436 -1438 0
-1436 -1439 0
-1436 -1440 0
-1436 -1441 0
-1436 -1442 0
-1436 -1443 0
-1436 -1444 0
-1436 -1445 0
-1436 -1446 0
-1436 -1447 0
-1436 -1448 0
-1436 -1449 0
-1436 -1450 0
-1437 -1438 0
-1437 -1439 0
-1437 -1440 0
-1437 -1441 0
-1437 -1442 0
-1437 -1443 0
-1437 -1444 0
-1437 -1445 0
-1437 -1446 0
-1437 -1447 0
-1437 -1448 0
-1437 -1449 0
-1437 -1450 0
-1438 -1439 0
-1438 -1440 0
-1438 -1441 0
-1438 -1442 0
-1438 -1443 0
-1438 -1444 0
-1438 -1445 0
-1438 -1446 0
-1438 -1447 0
-1438 -1448 0
-1438 -1449 0
-1438 -1450 0
-1439 -1440 0
-1439 -1441 0
-1439 -1442 0
-1439 -1443 0
-1439 -1444 0
-1439 -1445 0
-1439 -1446 0
-1439 -1447 0
-1439 -1448 0
-1439 -1449 0
-1439 -1450 0
-1440 -1441 0
-1440 -1442 0
-1440 -1443 0
-1440 -1444 0
-1440 -1445 0
-1440 -1446 0
-1440 -1447 0
-1440 -1448 0
-1440 -1449 0
-1440 -1450 0
-1441 -1442 0
-1441 -1443 0
-1441 -1444 0
-1441 -1445 0
-1441 -1446 0
-1441 -1447 0
-1441 -1448 0
-1441 -1449 0
-1441 -1450 0
-1442 -1443 0
-1442 -1444 0
-1442 -1445 0
-1442 -1446 0
-1442 -1447 0
-1442 -1448 0
-1442 -1449 0
-1442 -1450 0
-1443 -1444 0
-1443 -1445 0
-1443 -1446 0
-1443 -1447 0
-1443 -1448 0
-1443 -1449 0
-1443 -1450 0
-1444 -1445 0
-1444 -1446 0
-1444 -1447 0
-1444 -1448 0
-1444 -1449 0
-1444 -1450 0
-1445 -1446 0
-1445 -1447 0
-1445 -1448 0
-1445 -1449 0
-1445 -1450 0
-1446 -1447 0
-1446 -1448 0
-1446 -1449 0
-1446 -1450 0
-1447 -1448 0
-1447 -1449 0
-1447 -1450 0
-1448 -1449 0
-1448 -1450 0
-1449 -1450 0
